32 37 
47 29 
45 73 
23 85 
72 13 
25 71 
52 89 
37 65 
70 67 
40 77 
94 56 
28 86 
14 56 
67 51 
57 61 
76 89 
98 75 
70 95 
48 93 
80 73 
58 5 
44 62 
46 81 
28 69 
0 68 
46 46 
77 74 
85 43 
82 52 
94 39 
14 22 
29 64 
98 51 
60 98 
97 92 
23 55 
50 19 
18 96 
0 98 
65 52 
18 11 
51 95 
37 36 
90 72 
88 36 
11 54 
59 92 
19 9 
44 31 
59 41 
